n = 50;
C = 5752;
w = [480,456,11,485,80,27,453,224,243,436,217,144,75,221,84,232,464,467,13,209,188,198,22,177,68,95,124,372,104,348,356,226,327,268,142,211,281,360,54,359,67,167,358,139,131,391,402,58,421,70];
p = [467,475,58,527,54,36,436,184,277,469,179,175,28,240,57,183,479,485,-8,248,209,163,-8,164,112,76,143,343,104,305,402,181,337,253,181,240,328,323,70,369,93,124,358,168,89,416,404,52,430,78];
